n=15;
m=26;
ciudades=[|3, 8
|9, 10
|4, 1
|8, 7
|0, 3
|9, 11
|2, 2
|0, 13
|14, 9
|12, 4
|3, 14
|1, 12
|13, 6
|5, 0
|4, 11
|5, 12
|2, 15
|5, 9
|4, 12
|8, 9
|8, 11
|12, 13
|4, 15
|9, 14
|9, 12
|12, 15
|];